GLPSOL--GLPK LP/MIP Solver 5.0
Parameter(s) specified in the command line:
 --lp ../modeles/5_344.lp --log 5_344.log
Reading problem data from '../modeles/5_344.lp'...
1741 rows, 3450 columns, 12055 non-zeros
1720 integer variables, all of which are binary
5202 lines were read
GLPK Integer Optimizer 5.0
1741 rows, 3450 columns, 12055 non-zeros
1720 integer variables, all of which are binary
Preprocessing...
1710 constraint coefficient(s) were reduced
1741 rows, 3445 columns, 12050 non-zeros
1720 integer variables, all of which are binary
Scaling...
 A: min|aij| =  1.352e-04  max|aij| =  4.000e+00  ratio =  2.958e+04
GM: min|aij| =  7.625e-02  max|aij| =  1.311e+01  ratio =  1.720e+02
EQ: min|aij| =  5.814e-03  max|aij| =  1.000e+00  ratio =  1.720e+02
2N: min|aij| =  3.906e-03  max|aij| =  1.751e+00  ratio =  4.481e+02
Constructing initial basis...
Size of triangular part is 1741
Solving LP relaxation...
GLPK Simplex Optimizer 5.0
1741 rows, 3445 columns, 12050 non-zeros
      0: obj =   1.000000000e+01 inf =   2.450e+01 (11)
    104: obj =   4.163412944e-01 inf =   0.000e+00 (0)
*   352: obj =  -2.235880399e+00 inf =   1.203e-16 (0)
OPTIMAL LP SOLUTION FOUND
Integer optimization begins...
Long-step dual simplex will be used
+   352: mip =     not found yet >=              -inf        (1; 0)
+  1328: >>>>>  -2.235880399e+00 >=  -2.235880399e+00   0.0% (974; 0)
+  1328: mip =  -2.235880399e+00 >=     tree is empty   0.0% (0; 1947)
INTEGER OPTIMAL SOLUTION FOUND
Time used:   2.4 secs
Memory used: 5.2 Mb (5417839 bytes)
